100 62280

 66 543
691 833
573 126
405 130
364 557
217 947
670 415
971 327
176 607
598 931
425 837
447 996
255 23
826 113
486 610
544 821
305 286
182 240
86 787
715 57
197 370
691 506
391 561
416 729
470 355
368 613
101 586
310 548
664 641
666 260
287 85
461 120
194 225
211 501
24 841
897 702
211 790
228 351
280 405
128 394
640 192
76 62
135 591
645 990
340 167
708 47
558 780
257 253
651 830
117 704
537 946
438 409
268 662
605 465
872 631
999 450
608 189
405 508
226 529
258 811
480 736
368 664
914 114
369 721
374 501
384 895
837 920
651 56
615 821
335 38
818 368
39 543
871 149
513 747
399 9
498 169
668 581
13 715
872 917
447 706
343 672
139 395
440 2
497 121
404 535
679 676
421 418
962 731
600 522
808 75
110 193
398 840
337 725
570 895
862 118
79 991
73 210
851 12
213 998
669 282
